Optimal - objective value 736.00000000
      7 x(7)                   1                       0
      9 x(9)                   1                       0
     23 x(23)                  1                       0
     29 x(29)                  1                       0
     31 x(31)                  1                       0
     36 x(36)                  1                       0
     38 x(38)                  1                       0
     42 x(42)                  1                       0
     43 x(43)                  1                       0
     48 x(48)                  1                       0
     66 x(66)                  1                       0
     71 x(71)                  1                      -2
     75 x(75)                  1                       0
     78 x(78)                  1                       4
     91 x(91)                  1                       2
     98 x(98)                  1                       0
     99 x(99)                  1                       0
    109 x(109)                 1                       0
    114 x(114)                 1                       0
    115 x(115)                 1                       0
    119 x(119)                 1                       1
    120 x(120)                 1                       0
    123 x(123)                 1                       0
    130 x(130)                 1                       2
    131 x(131)                 1                       0
    133 x(133)                 1                       0
    134 x(134)                 1                       0
    138 x(138)                 1                       0
    141 x(141)                 1                       0
    142 x(142)                 1                       0
    148 x(148)                 1                       0
    154 x(154)                 1                       0
    158 x(158)                 1                      -6
    161 x(161)                 1                       0
    171 x(171)                 1                       0
    173 x(173)                 1                       0
    175 x(175)                 1                       0
    176 x(176)                 1                       2
    177 x(177)                 1                       4
    179 x(179)                 1                       0
    180 x(180)                 1                       0
    183 x(183)                 1                       0
    185 x(185)                 1                       0
    195 x(195)                 1                       0
    196 x(196)                 1                       0
    200 x(200)                 1                       0
    201 x(201)                 1                       0
    203 x(203)                 1                       0
    210 x(210)                 1                       0
    212 x(212)                 1                       0
    216 x(216)                 1                       0
    220 x(220)                 1                       0
    225 x(225)                 1                       0
    232 x(232)                 1                       0
    240 x(240)                 1                       0
    243 x(243)                 1                       0
    246 x(246)                 1                       0
    248 x(248)                 1                       4
    250 x(250)                 1                       0
    251 x(251)                 1                       0
    254 x(254)                 1                       0
    257 x(257)                 1                       0
    267 x(267)                 1                       0
    275 x(275)                 1                       0
    276 x(276)                 1                       0
    285 x(285)                 1                      -8
    286 x(286)                 1                       0
    287 x(287)                 1                       0
    293 x(293)                 1                       0
    295 x(295)                 1                       0
    297 x(297)                 1                       0
